c 1 AgeRRN/ageRRN.splot.xml
c 2 Plugins
c 3 Themes
c 4 Admin_user
c 5 Facebook_plugin
c 6 A1_flash_gallery_plugin
c 7 Wpstorecart_plugin
c 8 Gtw_plugin
c 9 Wp_bing_plugin
c 10 Wp_sed_plugin
c 11 Hotfix_plugin
c 12 Mini_mail_dashboard_widget_plugin
c 13 Theme_plugin
c 14 Google_calendar_widget_plugin
c 15 Zingiri_web_shop_plugin
c 16 Akismet_plugin
c 17 Mm_forms_community_plugin
c 18 Thecartpress_plugin
c 19 Braille_plugin
c 20 Premium_Gallery_Manager_plugin
c 21 Lazy_seo_plugin
c 22 Reflex_gallery_plugin
c 23 Tell_a_friend_plugin
c 24 Wp_404_plugin
c 25 Formidable_plugin
c 26 Wp_mailinglist_plugin
c 27 News_plugin_plugin
c 28 Likebtn_like_button_plugin
c 29 Jetpack_plugin
c 30 Karma_theme
c 31 Toolbox_theme
c 32 Sportpress_theme
c 33 Clockstone_theme
c 34 Deep_blue_theme
c 35 Max_theme
c 36 Avenue_theme
c 37 Maintheme_theme
c 38 Kiddo_theme
c 39 Yoko_theme
c 40 Twentytwelve_theme
c 41 U_design_theme
c 42 Purevision_theme
c 43 Twentyeleven_theme
c 44 Twentyten_theme
c 45 OptimizePress_theme
p cnf 45 47
1 0
-2 1 0
-3 1 0
-4 1 0
-5 2 0
-6 2 0
-7 2 0
-8 2 0
-9 2 0
-10 2 0
-11 2 0
-12 2 0
-13 2 0
-14 2 0
-15 2 0
-16 2 0
-17 2 0
-18 2 0
-19 2 0
-20 2 0
-21 2 0
-22 2 0
-23 2 0
-24 2 0
-25 2 0
-26 2 0
-27 2 0
-28 2 0
-29 2 0
-2 5 6 7 8 9 10 11 12 13 14 15 16 17 18 19 20 21 22 23 24 25 26 27 28 29 0
-30 3 0
-31 3 0
-32 3 0
-33 3 0
-34 3 0
-35 3 0
-36 3 0
-37 3 0
-38 3 0
-39 3 0
-40 3 0
-41 3 0
-42 3 0
-43 3 0
-44 3 0
-45 3 0
-3 30 31 32 33 34 35 36 37 38 39 40 41 42 43 44 45 0
